input_door = [| 10 , 9 |];
output_door = [| 6 , 7 |];
n = 10;
edificio = 
[| 0, 1, 1, 0, 1, 1, 0, 0, 0, 1, 
| 0, 0, 0, 0, 0, 0, 0, 0, 0, 0, 
| 1, 0, 0, 0, 1, 1, 0, 0, 0, 0, 
| 1, 0, 1, 0, 0, 0, 0, 0, 1, 0, 
| 1, 0, 0, 0, 0, 0, 0, 0, 0, 0, 
| 0, 0, 1, 0, 0, 0, 3, 0, 0, 0, 
| 0, 0, 1, 0, 0, 0, 0, 0, 0, 0, 
| 0, 0, 0, 0, 0, 0, 1, 0, 0, 0, 
| 1, 1, 0, 1, 0, 0, 1, 0, 0, 0, 
| 0, 1, 1, 0, 0, 0, 0, 0, 2, 0 |];
